row=9;
column=9;
Board=[|36,0,0,27,45,0,0,0,0|0,0,63,0,0,0,0,0,0|0,54,0,27,0,36,0,0,81|0,0,27,0,0,8,0,0,18|0,24,0,0,0,0,15,0,27|8,24,0,20,0,0,0,0,36|0,0,0,45,0,0,0,81,0|0,48,72,0,0,0,0,0,0|1,0,0,0,21,0,0,0,0|];
